22      4       
20      15      19      15      
0       0       0       0       0       4       2       3       4       5       
6       6       1       10      6       1       6       
2       7       8       0       0       1       7       
5       8       10      0       2       2       8       12      
10      8       0       0       2       1       9       
8       8       0       10      7       1       8       
3       0       5       0       10      1       15      
6       0       1       4       0       1       14      
6       2       0       10      0       1       10      
10      0       3       0       7       1       11      
6       2       0       0       0       1       13      
4       0       0       1       0       1       17      
1       0       6       0       2       1       16      
8       8       4       1       0       1       20      
3       0       6       0       0       2       18      20      
7       10      0       8       5       1       21      
8       0       0       7       0       1       19      
8       0       0       0       10      1       22      
5       0       0       0       3       1       22      
1       10      0       2       0       1       22      
4       4       0       10      0       1       22      
0       0       0       0       0       0       
